Name: Ing0708-2
Courses: 107
Rooms: 17
Days: 5
Periods_per_day: 5
Curricula: 62
Min_Max_Daily_Lectures: 2 4
UnavailabilityConstraints: 589
RoomConstraints: 140

COURSES:
c0007 t000 3 3 12 0
c0009 t001 3 3 16 0
c0015 t002 3 3 35 0
c0019 t003 3 3 31 0
c0020 t004 3 3 12 0
c0023 t005 3 3 111 0
c0024 t006 3 3 38 0
c0044 t007 3 3 110 0
c0047 t008 3 3 100 0
c0049 t009 3 3 55 0
c0053 t010 3 3 60 0
c0056 t011 3 3 110 0
c0058 t012 3 3 100 0
c0061 t013 3 3 55 0
c0062 t014 3 3 55 0
c0069 t010 3 3 110 0
c0072 t015 3 3 127 0
c0074 t016 3 1 13 1
c0088 t017 5 4 65 1
c0095 t018 3 3 90 0
c0103 t019 3 3 80 0
c0106 t020 3 3 148 0
c0108 t021 3 3 90 0
c0110 t012 3 3 160 0
c0113 t022 3 3 125 0
c0115 t023 3 3 137 0
c0118 t024 3 3 33 0
c0127 t025 3 3 90 0
c0178 t026 3 3 90 0
c0191 t027 3 2 80 0
c0193 t028 3 3 106 0
c0195 t011 3 3 90 0
c0201 t029 3 2 105 1
c0203 t030 3 3 75 0
c0206 t031 3 3 90 0
c0211 t032 4 3 130 0
c0213 t033 3 3 130 0
c0217 t034 3 3 98 0
c0219 t035 3 2 83 0
c0221 t036 3 3 98 0
c0225 t037 3 3 83 0
c0230 t038 3 3 113 0
c0232 t039 3 3 50 0
c0238 t040 3 3 130 0
c0252 t041 3 3 120 0
c0253 t042 3 3 85 0
c0257 t043 3 3 157 0
c0279 t031 3 3 105 0
c0411 t044 3 3 57 0
c0412 t045 3 3 20 0
c0417 t046 3 3 20 0
c0423 t044 3 3 40 0
c0428 t045 3 3 20 0
c0430 t038 3 3 68 0
c0432 t047 3 3 40 0
c0443 t048 3 3 20 0
c0444 t049 3 3 20 0
c0449 t042 3 3 20 0
c0455 t050 3 3 65 0
c0464 t051 3 2 65 1
c0467 t052 3 3 15 0
c0478 t053 3 2 53 0
c0479 t009 3 3 37 0
c0487 t054 3 3 38 0
c0496 t055 3 3 31 0
c0497 t056 3 3 15 0
c0503 t057 3 2 31 1
c0504 t058 3 3 15 0
c0512 t059 3 3 69 0
c0515 t060 3 3 99 0
c0520 t020 3 3 112 0
c0526 t022 3 3 26 0
c0530 t059 3 3 28 0
c0532 t061 3 3 26 0
c0534 t062 3 3 15 0
c0535 t063 3 3 15 0
c0537 t064 3 3 15 0
c0538 t064 3 3 15 0
c0539 t065 3 3 15 0
c0554 t066 3 3 4 0
c0722 t067 3 3 80 0
c0723 t068 3 3 10 0
c0725 t065 3 3 69 0
c0730 t008 3 3 8 0
c0737 t028 3 2 37 1
c0742 t069 3 3 35 0
c0746 t055 3 3 100 0
c0769 t070 3 3 6 0
c0789 t071 3 3 12 0
c0794 t072 3 3 8 0
c0795 t071 3 3 23 0
c0804 t073 3 3 8 0
c0807 t074 3 3 8 0
c0808 t075 3 3 24 0
c0812 t076 3 3 17 0
c0813 t076 3 3 17 0
c0822 t077 3 3 4 0
c0835 t003 3 3 25 0
c0932 t078 3 3 90 0
c0936 t067 3 3 41 0
c0998 t079 3 3 88 0
c1053 t080 3 2 23 0
c1069 t056 3 3 20 0
c1077 t063 3 3 45 0
c1184 t081 3 3 41 0
c1001 t061 3 2 67 1
c1022 t014 3 3 8 0

ROOMS:
r25 40 1
r36 42 1
r37 42 1
r38 48 1
r34 50 1
r27 65 1
rB 216 0
rD 216 0
rF 216 0
rG 216 0
rA 216 0
rL 216 0
rN 30 0
rEr1 70 2
rEr2 70 2
r52 60 3
r51 78 2

CURRICULA:
q000 3 c0095 c0108 c0127 
q001 4 c0103 c0110 c0113 c0722 
q002 4 c0106 c0115 c0118 c0998 
q003 4 c0106 c0115 c0998 c1077 
q004 4 c0106 c0115 c0723 c0998 
q005 3 c0211 c0213 c0238 
q006 4 c0007 c0009 c0230 c0023 
q007 3 c0230 c0023 c0217 
q008 3 c0009 c0023 c0019 
q009 4 c0015 c0019 c0020 c0024 
q010 4 c0019 c0088 c0221 c0253 
q011 4 c0015 c0795 c0769 c0230 
q012 3 c0044 c0056 c0069 
q013 4 c0047 c0053 c0058 c0746 
q014 4 c0049 c0061 c0062 c0742 
q015 4 c0049 c0061 c0062 c0074 
q016 4 c0049 c0061 c0062 c1069 
q017 4 c0049 c0061 c0062 c0072 
q019 4 c0217 c0219 c0023 c0230 
q020 4 c0217 c0219 c0230 c0769 
q021 4 c0221 c0225 c0232 c0088 
q022 4 c0221 c0225 c0253 c0932 
q023 2 c0225 c0221 
q024 3 c0178 c0195 c0206 
q025 4 c0252 c0191 c0110 c0193 
q026 4 c0257 c0515 c0201 c0203 
q027 4 c0257 c0515 c0201 c0467 
q028 4 c0257 c0515 c0201 c0106 
q030 4 c0252 c0058 c0047 c0746 
q031 4 c0257 c0201 c0072 c0203 
q032 3 c0257 c0201 c0072 
q033 4 c0257 c0201 c0072 c0279 
q034 4 c0455 c0478 c1184 c0503 
q035 5 c0455 c0478 c1184 c0503 c0279 
q036 4 c0115 c0279 c0455 c0106 
q037 4 c0115 c0279 c0455 c0467 
q038 3 c0464 c0496 c0279 
q039 2 c0464 c0496 
q040 4 c0464 c0072 c0520 c0113 
q041 2 c0464 c0554 
q042 5 c0411 c0412 c0088 c0417 c0932 
q043 6 c0411 c0932 c0432 c0232 c0015 c0443 
q044 5 c0423 c0428 c0430 c0253 c0432 
q045 4 c0444 c0423 c0430 c0449 
q046 3 c0478 c0479 c0074 
q047 4 c0478 c0479 c0497 c1069 
q048 4 c0478 c0479 c0072 c0737 
q049 4 c0487 c0737 c0730 c1053 
q050 5 c0487 c0737 c0496 c1053 c0279 
q051 4 c0487 c0504 c0503 c0279 
q052 5 c0512 c0725 c0193 c0515 c0936 
q053 4 c0512 c0725 c0430 c0530 
q054 5 c0512 c0725 c0535 c0539 c0936 
q055 5 c0520 c1001 c0072 c0257 c0526 
q056 5 c0520 c1001 c0257 c0024 c0532 
q057 5 c0520 c1001 c0534 c0537 c0538 
q058 6 c1184 c0794 c0795 c0467 c0835 c1022 
q059 5 c1184 c0812 c0813 c0411 c0835 
q060 6 c1184 c0795 c0411 c0812 c0813 c0835 
q061 3 c0804 c0807 c0808 
q062 2 c0808 c0822 
q063 2 c0789 c0808 

UNAVAILABILITY_CONSTRAINTS:
c0007 0 0 
c0007 0 4 
c0007 1 0 
c0007 1 4 
c0007 2 0 
c0007 2 4 
c0007 3 0 
c0007 4 0 
c0015 0 0 
c0015 0 2 
c0015 1 0 
c0015 1 2 
c0015 2 0 
c0015 2 2 
c0015 3 2 
c0015 4 2 
c0019 0 0 
c0019 0 1 
c0019 0 2 
c0019 0 3 
c0019 0 4 
c0019 2 0 
c0019 2 1 
c0019 2 2 
c0020 0 0 
c0020 0 1 
c0020 1 0 
c0020 2 0 
c0020 3 0 
c0020 4 0 
c0020 4 2 
c0020 4 3 
c0020 4 4 
c0044 0 0 
c0044 3 0 
c0044 3 4 
c0044 4 0 
c0044 4 1 
c0044 4 2 
c0044 4 3 
c0044 4 4 
c0047 0 0 
c0047 0 1 
c0047 0 2 
c0047 0 3 
c0047 0 4 
c0047 4 2 
c0047 4 3 
c0047 4 4 
c0049 0 0 
c0049 0 1 
c0049 0 2 
c0049 0 3 
c0049 0 4 
c0049 4 2 
c0049 4 3 
c0049 4 4 
c0053 4 0 
c0053 4 1 
c0053 4 2 
c0053 4 3 
c0053 4 4 
c0056 0 2 
c0056 0 3 
c0056 0 4 
c0056 1 2 
c0056 1 3 
c0056 1 4 
c0056 2 2 
c0056 2 3 
c0056 2 4 
c0056 3 2 
c0056 3 3 
c0056 3 4 
c0056 4 2 
c0056 4 3 
c0056 4 4 
c0058 0 0 
c0058 1 0 
c0058 2 0 
c0058 3 0 
c0058 3 1 
c0058 3 2 
c0058 3 3 
c0058 3 4 
c0058 4 0 
c0058 4 1 
c0058 4 2 
c0058 4 3 
c0058 4 4 
c0061 0 0 
c0061 1 0 
c0061 2 0 
c0061 3 0 
c0061 4 0 
c0061 4 1 
c0061 4 2 
c0061 4 3 
c0069 4 0 
c0069 4 1 
c0069 4 2 
c0069 4 3 
c0069 4 4 
c0072 0 0 
c0072 0 1 
c0072 0 2 
c0072 0 3 
c0072 4 1 
c0072 4 2 
c0072 4 3 
c0072 4 4 
c0088 0 0 
c0088 0 2 
c0088 1 2 
c0088 2 2 
c0088 3 2 
c0088 3 4 
c0088 4 2 
c0088 4 4 
c0103 0 0 
c0103 0 2 
c0103 1 0 
c0103 1 2 
c0103 2 2 
c0103 3 2 
c0103 4 0 
c0103 4 2 
c0106 0 0 
c0106 0 1 
c0106 0 2 
c0106 0 4 
c0106 1 0 
c0106 1 1 
c0106 1 2 
c0106 1 4 
c0106 2 0 
c0106 2 1 
c0106 2 2 
c0106 2 4 
c0106 3 0 
c0106 3 1 
c0106 3 2 
c0106 3 4 
c0106 4 0 
c0106 4 1 
c0106 4 2 
c0106 4 4 
c0108 0 0 
c0108 0 1 
c0108 1 0 
c0108 2 0 
c0108 2 1 
c0108 3 0 
c0108 4 0 
c0108 4 1 
c0110 0 0 
c0110 1 0 
c0110 2 0 
c0110 3 0 
c0110 3 1 
c0110 3 2 
c0110 3 3 
c0110 3 4 
c0110 4 0 
c0110 4 1 
c0110 4 2 
c0110 4 3 
c0110 4 4 
c0115 1 2 
c0115 1 3 
c0115 1 4 
c0115 2 2 
c0115 2 3 
c0115 2 4 
c0118 1 0 
c0118 1 1 
c0118 1 2 
c0118 1 3 
c0118 1 4 
c0118 4 2 
c0118 4 3 
c0118 4 4 
c0178 0 2 
c0178 1 2 
c0178 2 2 
c0178 3 2 
c0178 4 2 
c0178 4 3 
c0178 4 4 
c0191 0 0 
c0191 0 1 
c0191 0 2 
c0191 4 0 
c0191 4 1 
c0191 4 2 
c0191 4 3 
c0191 4 4 
c0193 0 3 
c0193 0 4 
c0193 2 3 
c0193 2 4 
c0193 3 3 
c0193 3 4 
c0193 4 3 
c0193 4 4 
c0195 0 2 
c0195 0 3 
c0195 0 4 
c0195 1 2 
c0195 1 3 
c0195 1 4 
c0195 2 2 
c0195 2 3 
c0195 2 4 
c0195 3 2 
c0195 3 3 
c0195 3 4 
c0195 4 2 
c0195 4 3 
c0195 4 4 
c0203 0 0 
c0203 0 1 
c0203 0 2 
c0203 3 2 
c0203 3 3 
c0203 3 4 
c0203 4 0 
c0203 4 1 
c0203 4 2 
c0203 4 3 
c0203 4 4 
c0206 0 4 
c0206 1 4 
c0206 2 4 
c0206 3 4 
c0206 4 4 
c0211 0 2 
c0211 0 3 
c0211 0 4 
c0211 1 2 
c0211 1 3 
c0211 1 4 
c0211 2 2 
c0211 2 3 
c0211 2 4 
c0211 3 2 
c0211 3 3 
c0211 3 4 
c0211 4 2 
c0211 4 3 
c0211 4 4 
c0213 0 0 
c0213 0 1 
c0213 0 2 
c0213 0 3 
c0213 1 4 
c0213 2 4 
c0213 3 4 
c0213 4 4 
c0219 0 3 
c0219 0 4 
c0219 3 0 
c0219 3 3 
c0219 3 4 
c0219 4 4 
c0230 0 2 
c0230 1 2 
c0230 2 2 
c0230 3 2 
c0230 4 2 
c0230 4 3 
c0230 4 4 
c0232 0 2 
c0232 1 2 
c0232 2 2 
c0232 3 2 
c0232 4 2 
c0232 4 3 
c0232 4 4 
c0238 0 1 
c0238 0 2 
c0238 1 1 
c0238 1 2 
c0238 2 1 
c0238 2 2 
c0238 3 1 
c0238 3 2 
c0238 4 1 
c0238 4 2 
c0252 0 0 
c0252 1 0 
c0252 2 0 
c0252 2 1 
c0252 2 2 
c0252 2 3 
c0252 2 4 
c0252 3 0 
c0253 0 0 
c0253 1 0 
c0253 3 0 
c0253 3 1 
c0253 3 2 
c0253 3 3 
c0253 3 4 
c0253 4 0 
c0253 4 1 
c0253 4 2 
c0253 4 3 
c0253 4 4 
c0257 0 0 
c0257 0 1 
c0257 0 2 
c0257 0 3 
c0257 0 4 
c0257 4 0 
c0257 4 1 
c0257 4 2 
c0257 4 3 
c0257 4 4 
c0279 0 4 
c0279 1 4 
c0279 2 4 
c0279 3 4 
c0279 4 4 
c0412 0 0 
c0412 0 1 
c0412 0 4 
c0412 1 4 
c0412 2 4 
c0412 3 4 
c0412 4 0 
c0412 4 1 
c0412 4 4 
c0417 0 0 
c0417 1 0 
c0417 2 0 
c0417 2 4 
c0417 3 0 
c0417 3 4 
c0417 4 0 
c0417 4 4 
c0428 1 0 
c0428 1 1 
c0428 2 0 
c0428 2 1 
c0428 2 3 
c0428 2 4 
c0428 3 0 
c0428 3 1 
c0430 0 2 
c0430 1 2 
c0430 2 2 
c0430 3 2 
c0430 4 2 
c0430 4 3 
c0430 4 4 
c0432 0 2 
c0432 1 2 
c0432 2 2 
c0432 3 0 
c0432 3 1 
c0432 3 2 
c0432 3 3 
c0432 4 2 
c0443 0 0 
c0443 0 1 
c0443 0 2 
c0443 0 3 
c0443 4 1 
c0443 4 2 
c0443 4 3 
c0443 4 4 
c0449 0 0 
c0449 1 0 
c0449 3 0 
c0449 3 1 
c0449 3 2 
c0449 3 3 
c0449 3 4 
c0449 4 0 
c0449 4 1 
c0449 4 2 
c0449 4 3 
c0449 4 4 
c0479 0 0 
c0479 0 1 
c0479 0 2 
c0479 0 3 
c0479 0 4 
c0479 4 2 
c0479 4 3 
c0479 4 4 
c0487 0 0 
c0487 0 1 
c0487 0 2 
c0487 0 3 
c0487 0 4 
c0487 4 2 
c0487 4 3 
c0487 4 4 
c0496 0 0 
c0496 1 0 
c0496 2 0 
c0496 2 4 
c0496 3 0 
c0496 3 4 
c0496 4 0 
c0496 4 4 
c0497 4 3 
c0497 4 4 
c0503 0 0 
c0503 0 1 
c0503 0 2 
c0503 0 3 
c0503 0 4 
c0503 1 0 
c0503 1 1 
c0503 1 2 
c0503 1 3 
c0503 1 4 
c0503 3 0 
c0503 3 1 
c0503 3 2 
c0503 3 3 
c0503 3 4 
c0512 0 0 
c0512 1 0 
c0512 2 0 
c0512 3 0 
c0512 4 0 
c0515 0 2 
c0515 0 4 
c0515 1 4 
c0515 2 4 
c0515 3 2 
c0515 3 4 
c0515 4 2 
c0515 4 4 
c0530 0 0 
c0530 1 0 
c0530 2 0 
c0530 3 0 
c0530 4 0 
c0532 0 2 
c0532 1 2 
c0532 2 2 
c0532 2 3 
c0532 2 4 
c0532 3 2 
c0532 4 2 
c0532 4 4 
c0534 0 0 
c0534 0 1 
c0534 0 2 
c0534 0 3 
c0534 4 1 
c0534 4 2 
c0534 4 3 
c0534 4 4 
c0535 3 0 
c0535 3 1 
c0535 3 2 
c0535 3 3 
c0535 3 4 
c0535 4 0 
c0535 4 1 
c0535 4 2 
c0535 4 3 
c0535 4 4 
c0539 0 2 
c0539 1 2 
c0539 2 2 
c0539 3 2 
c0539 4 2 
c0554 0 0 
c0554 0 1 
c0554 1 0 
c0554 2 0 
c0554 3 0 
c0554 4 0 
c0554 4 2 
c0554 4 3 
c0554 4 4 
c0722 0 0 
c0722 0 1 
c0722 1 3 
c0722 1 4 
c0722 2 0 
c0722 2 1 
c0722 2 2 
c0722 2 3 
c0725 0 2 
c0725 1 2 
c0725 2 2 
c0725 3 2 
c0725 4 2 
c0730 0 0 
c0730 0 1 
c0730 0 2 
c0730 0 3 
c0730 0 4 
c0730 4 2 
c0730 4 3 
c0730 4 4 
c0737 0 3 
c0737 0 4 
c0737 1 1 
c0737 2 3 
c0737 2 4 
c0737 3 3 
c0737 3 4 
c0737 4 3 
c0737 4 4 
c0742 0 0 
c0742 0 1 
c0742 0 2 
c0742 0 3 
c0742 4 1 
c0742 4 2 
c0742 4 3 
c0742 4 4 
c0804 0 2 
c0804 1 2 
c0804 2 2 
c0804 3 2 
c0804 4 0 
c0804 4 1 
c0804 4 2 
c0804 4 3 
c0804 4 4 
c0808 0 0 
c0808 0 2 
c0808 1 2 
c0808 2 2 
c0808 3 2 
c0808 4 0 
c0808 4 2 
c0808 4 4 
c0835 0 0 
c0835 0 1 
c0835 0 2 
c0835 0 3 
c0835 0 4 
c0835 2 0 
c0835 2 1 
c0835 2 2 
c0936 0 0 
c0936 0 1 
c0936 1 3 
c0936 1 4 
c0936 2 0 
c0936 2 1 
c0936 2 2 
c0936 2 3 
c1053 0 0 
c1053 0 1 
c1053 0 2 
c1053 0 3 
c1053 0 4 
c1053 3 0 
c1053 3 1 
c1053 3 2 
c1053 3 3 
c1053 3 4 
c1053 4 0 
c1053 4 1 
c1053 4 2 
c1053 4 3 
c1053 4 4 
c1069 4 3 
c1069 4 4 
c1077 3 0 
c1077 3 1 
c1077 3 2 
c1077 3 3 
c1077 3 4 
c1077 4 0 
c1077 4 1 
c1077 4 2 
c1077 4 3 
c1077 4 4 
c1184 2 0 
c1184 2 1 
c1184 2 2 
c1184 2 3 
c1184 2 4 
c1184 4 2 
c1184 4 3 
c1184 4 4 

ROOM_CONSTRAINTS:
c0007 r37
c0007 rA
c0007 rEr2
c0009 r25
c0009 r27
c0009 rEr2
c0015 rEr2
c0019 rEr1
c0023 r38
c0023 rB
c0024 r38
c0044 r37
c0053 r37
c0053 r27
c0053 rB
c0053 r52
c0056 rD
c0056 rL
c0058 rEr2
c0058 r51
c0062 rEr2
c0069 rA
c0069 rL
c0069 rN
c0072 r51
c0074 rA
c0088 rG
c0103 rB
c0106 rEr2
c0113 rB
c0113 r52
c0115 r36
c0115 rB
c0115 rA
c0115 r52
c0115 r51
c0118 rD
c0178 rF
c0178 rEr1
c0191 rF
c0193 r38
c0195 rA
c0195 r51
c0201 rA
c0201 r52
c0206 rF
c0211 rD
c0213 r38
c0213 rF
c0213 rL
c0213 rEr1
c0221 r25
c0225 r27
c0230 rB
c0230 r51
c0232 r37
c0232 rG
c0232 r52
c0232 r51
c0238 rB
c0238 rN
c0252 rL
c0252 rEr2
c0253 rEr1
c0257 rEr1
c0279 rA
c0412 r37
c0412 rB
c0417 rD
c0417 rN
c0430 r34
c0443 rG
c0455 r25
c0455 rD
c0455 rEr2
c0478 r34
c0478 rEr1
c0479 rF
c0487 r36
c0487 rB
c0487 rN
c0496 r34
c0496 rEr1
c0497 rD
c0504 r38
c0515 r27
c0520 rD
c0520 r51
c0526 rD
c0526 rL
c0530 r27
c0530 rG
c0530 r52
c0532 rA
c0532 rN
c0534 rF
c0535 rA
c0538 rEr1
c0554 r51
c0722 rF
c0725 r34
c0730 rA
c0730 rEr1
c0737 r36
c0737 rEr1
c0742 r34
c0742 rD
c0742 rA
c0746 rG
c0746 r52
c0769 rF
c0769 rG
c0769 rEr2
c0789 r37
c0794 r36
c0795 r27
c0804 rN
c0807 rD
c0812 r37
c0812 r38
c0812 r52
c0813 r27
c0835 rG
c0835 rA
c0835 rL
c0932 r36
c0932 rB
c0932 rF
c0932 rL
c0998 rEr1
c1053 r27
c1053 rL
c1069 r37
c1069 rD
c1077 rF
c1184 r36
c1184 r38
c1022 rD
c1022 rN
c1022 rEr1

END.